(set-logic HORN)
(declare-fun state (Int (Array Int Int) (Array Int Int) (Array Int Int) (Array Int Int) Int Int (Array Int Int) (Array Int Int) Int Int Int Int Int Int Int Int Int Int Int Int Int Int Int Int Int Int Int Int Int Int Bool Bool Bool Bool Bool (Array Int Int)) Bool)
(assert (forall ((|A_18| Int) (|B_18| (Array Int Int)) (|C_18| (Array Int Int)) (|D_18| (Array Int Int)) (|E_18| (Array Int Int)) (|F_18| Int) (|G_18| Int) (|H_18| (Array Int Int)) (|I_18| (Array Int Int)) (|J_18| Int) (|K_18| Int) (|L_18| Int) (|M_18| Int) (|N_18| Int) (|O_18| Int) (|P_18| Int) (|Q_18| Int) (|R_18| Int) (|S_18| Int) (|T_18| Int) (|U_18| Int) (|V_18| Int) (|W_18| Int) (|X_18| Int) (|Y_18| Int) (|Z_18| Int) (|A1_18| Int) (|B1_18| Int) (|C1_18| Int) (|D1_18| Int) (|E1_18| Int) (|G1_10| Bool) (|.loc.5| Bool) (|.loc.6| Bool) (|.loc.7| Bool) (|.loc.8| Bool) (|G1_0| (Array Int Int)) (|.x.572| Int) (|.x.570| (Array Int Int)) (|.x.568| Int) (|.x.566| (Array Int Int)) (|.x.562| Int) (|.x.564| (Array Int Int)) (|.x.563| (Array Int Int)) (|F1_18| Bool) (|.x.574| Int) (|.x.576| Int) (|.x.580| Int) (|.x.588| Int) (|.x.589| Int) (|.x.587| Int) (|.loc.10| Bool) (|.x.584| Int) (|.x.577| Int) (|.x.590| Int) (|.x.591| Int) (|.loc.12| Bool) (|.loc.9| Bool) (|.loc.11| Bool) (|.x.579| Int) (|.x.582| Int) (|.x.585| Int) (|.x.586| Int) (|.x.578| Int) (|.x.565| (Array Int Int)) (|.x.583| Int) (|.x.592| Int) (|.x.573| Int) (|.x.581| Int) (|.x.575| Int) (|.x.571| Int) (|.x.567| Int) (|.x.569| (Array Int Int)) (|.xtv.1| (Array Int Int))) (=> (and (and (and (and .loc.5 (not .loc.6)) (not .loc.7)) (not .loc.8)) (and (and (and (and (and (= D_18 E_18) (not G1_10)) (= F_18 G_18)) (= J_18 K_18)) (= H_18 I_18)) (= B_18 C_18))) (state |A_18| |B_18| |C_18| |D_18| |E_18| |F_18| |G_18| |H_18| |I_18| |J_18| |K_18| |L_18| |M_18| |N_18| |O_18| |P_18| |Q_18| |R_18| |S_18| |T_18| |U_18| |V_18| |W_18| |X_18| |Y_18| |Z_18| |A1_18| |B1_18| |C1_18| |D1_18| |E1_18| |G1_10| |.loc.5| |.loc.6| |.loc.7| |.loc.8| |G1_0|))))
(assert (forall ((|A_18| Int) (|B_18| (Array Int Int)) (|C_18| (Array Int Int)) (|D_18| (Array Int Int)) (|E_18| (Array Int Int)) (|F_18| Int) (|G_18| Int) (|H_18| (Array Int Int)) (|I_18| (Array Int Int)) (|J_18| Int) (|K_18| Int) (|L_18| Int) (|M_18| Int) (|N_18| Int) (|O_18| Int) (|P_18| Int) (|Q_18| Int) (|R_18| Int) (|S_18| Int) (|T_18| Int) (|U_18| Int) (|V_18| Int) (|W_18| Int) (|X_18| Int) (|Y_18| Int) (|Z_18| Int) (|A1_18| Int) (|B1_18| Int) (|C1_18| Int) (|D1_18| Int) (|E1_18| Int) (|G1_10| Bool) (|.loc.5| Bool) (|.loc.6| Bool) (|.loc.7| Bool) (|.loc.8| Bool) (|G1_0| (Array Int Int)) (|.x.572| Int) (|.x.570| (Array Int Int)) (|.x.568| Int) (|.x.566| (Array Int Int)) (|.x.562| Int) (|.x.564| (Array Int Int)) (|.x.563| (Array Int Int)) (|F1_18| Bool) (|.x.574| Int) (|.x.576| Int) (|.x.580| Int) (|.x.588| Int) (|.x.589| Int) (|.x.587| Int) (|.loc.10| Bool) (|.x.584| Int) (|.x.577| Int) (|.x.590| Int) (|.x.591| Int) (|.loc.12| Bool) (|.loc.9| Bool) (|.loc.11| Bool) (|.x.579| Int) (|.x.582| Int) (|.x.585| Int) (|.x.586| Int) (|.x.578| Int) (|.x.565| (Array Int Int)) (|.x.583| Int) (|.x.592| Int) (|.x.573| Int) (|.x.581| Int) (|.x.575| Int) (|.x.571| Int) (|.x.567| Int) (|.x.569| (Array Int Int)) (|.xtv.1| (Array Int Int))) (=> (and (state |A_18| |B_18| |C_18| |D_18| |E_18| |F_18| |G_18| |H_18| |I_18| |J_18| |K_18| |L_18| |M_18| |N_18| |O_18| |P_18| |Q_18| |R_18| |S_18| |T_18| |U_18| |V_18| |W_18| |X_18| |Y_18| |Z_18| |A1_18| |B1_18| |C1_18| |D1_18| |E1_18| |G1_10| |.loc.5| |.loc.6| |.loc.7| |.loc.8| |G1_0|) (let ((.def_47 (not .loc.6))) (let ((.def_49 (not .loc.7))) (let ((.def_51 (not .loc.8))) (let ((.def_83 (= B_18 .x.563))) (let ((.def_87 (= M_18 .x.574))) (let ((.def_90 (= O_18 .x.576))) (let ((.def_93 (= S_18 .x.580))) (let ((.def_96 (= A1_18 .x.588))) (let ((.def_99 (= B1_18 .x.589))) (let ((.def_101 (not .loc.5))) (let ((.def_112 (= G1_10 F1_18))) (let ((.def_121 (= P_18 0))) (let ((.def_124 (and .def_90 (and .def_83 .def_87)))) (let ((.def_127 (and .def_99 (and .def_96 (and .def_93 .def_124))))) (let ((.def_132 (not .loc.10))) (let ((.def_138 (= W_18 .x.584))) (let ((.def_140 (= P_18 .x.577))) (let ((.def_143 (= C1_18 .x.590))) (let ((.def_146 (= D1_18 .x.591))) (let ((.def_151 (not .loc.9))) (let ((.def_154 (not .loc.11))) (let ((.def_158 (select D_18 B1_18))) (let ((.def_159 (select .def_158 (+ R_18 A1_18)))) (let ((.def_162 (select D_18 M_18))) (let ((.def_186 (<= (+ N_18 (+ (* (- 1) R_18) (+ (* (- 4294967296) (to_int (* (/ 1 4294967296) (to_real N_18)))) (* 4294967296 (to_int (* (/ 1 4294967296) (to_real R_18))))))) 0))) (let ((.def_187 (not .def_186))) (let ((.def_201 (not .loc.12))) (let ((.def_206 (= R_18 .x.579))) (let ((.def_208 (= U_18 .x.582))) (let ((.def_211 (= X_18 .x.585))) (let ((.def_214 (= Y_18 .x.586))) (let ((.def_221 (and .def_124 .def_140))) (let ((.def_222 (and .def_93 .def_221))) (let ((.def_238 (or F1_18 (= (+ R_18 (* (- 1) .x.579)) (- 1))))) (let ((.def_257 (ite (<= (+ N_18 (* (- 4294967296) (to_int (+ (* (/ 1 4294967296) (to_real N_18)) (/ 4294967295 4294967296))))) (- 2147483648)) (+ (+ (* (- 4294967296) (to_int (+ (* (/ 1 4294967296) (to_real N_18)) (/ 4294967295 4294967296)))) (* 4294967296 (to_int (* (/ 1 4294967296) (to_real N_18))))) (+ 4294967295 (+ N_18 (* (- 4294967296) (to_int (* (/ 1 4294967296) (to_real N_18))))))) (+ (- 4294967296) (+ (+ (* (- 4294967296) (to_int (+ (* (/ 1 4294967296) (to_real N_18)) (/ 4294967295 4294967296)))) (* 4294967296 (to_int (* (/ 1 4294967296) (to_real N_18))))) (+ 4294967295 (+ N_18 (* (- 4294967296) (to_int (* (/ 1 4294967296) (to_real N_18))))))))))) (let ((.def_259 (= .x.579 0))) (let ((.def_268 (and .def_146 (and .def_143 (and .def_99 (and .def_96 (and .def_211 (and .def_138 (and .def_208 .def_222))))))))) (let ((.def_280 (and G1_10 .def_83))) (let ((.def_293 (and .def_146 (and .def_143 (and .def_99 (and .def_96 (and .def_214 (and .def_211 (and .def_138 (and .def_208 (and .def_93 (and .def_206 (and .def_140 (and .def_90 (and .def_87 .def_280))))))))))))))) (let ((.def_313 (and .def_146 (and .def_143 (and .def_99 (and .def_96 (and .def_214 (and .def_211 (and .def_138 (and .def_208 (and .def_93 (and .def_206 .def_221)))))))))))) (let ((.def_323 (or G1_10 .def_186))) (let ((.def_336 (<= 0 R_18))) (let ((.def_351 (= Q_18 .x.578))) (let ((.def_353 (= D_18 .x.565))) (let ((.def_356 (= V_18 .x.583))) (let ((.def_359 (= E1_18 .x.592))) (let ((.def_401 (and .def_359 (and .def_146 (and .def_143 (and .def_99 (and .def_96 (and .def_214 (and .def_211 (and .def_138 (and .def_356 (and .def_208 (and .def_93 (and .def_206 (and .def_351 (and .def_140 (and .def_90 (and .def_87 (and .def_83 .def_353))))))))))))))))))) (let ((.def_429 (and .def_359 (and .def_146 (and .def_143 (and .def_99 (and .def_96 (and .def_214 (and .def_211 (and .def_138 (and .def_356 (and .def_208 (and .def_93 (and .def_206 (and .def_351 (and .def_140 (and .def_90 (and .def_87 (and .def_280 .def_353))))))))))))))))))) (let ((.def_454 (and .def_211 (and .def_138 (and .def_356 (and .def_208 (and .def_93 (and .def_221 .def_351)))))))) (let ((.def_571 (store G1_0 .x.589 1))) (let ((.def_582 (ite (<= (+ .x.575 (* (- 4294967296) (to_int (* (/ 1 4294967296) (to_real .x.575))))) 2147483647) (+ .x.575 (* (- 4294967296) (to_int (* (/ 1 4294967296) (to_real .x.575))))) (+ (- 4294967296) (+ .x.575 (* (- 4294967296) (to_int (* (/ 1 4294967296) (to_real .x.575))))))))) (and (and (= K_18 .x.572) (and (= I_18 .x.570) (and (= G_18 .x.568) (and (= E_18 .x.566) (and (= A_18 .x.562) (= C_18 .x.564)))))) (or (and (or (and (or (or (or (or (or (or (and (or (or (or (or (or (or (and (or (and (or (and (or (and (and (and (and (and (and (and .def_83 F1_18) .def_87) .def_90) .def_93) .def_96) .def_99) .def_101) (and (or G1_10 (= .x.563 (store (store B_18 B1_18 0) M_18 0))) (and (and .loc.5 (or F1_18 (= .x.580 .x.587))) .def_112))) (and (and .def_49 (and .loc.8 .def_47)) .loc.10)) (and (or G1_10 .def_121) (and .def_51 (and (and .def_112 (and .loc.7 (and .loc.6 (and .loc.5 .def_127)))) .def_132)))) (and (and (and (and (and (and .def_138 .def_140) .def_143) .def_146) .loc.12) .def_151) .def_154)) (and (or G1_10 (and (= .x.591 .def_159) (and (= .x.584 (select .def_162 (+ O_18 Y_18))) (and (= .x.577 .x.590) (and (= .x.590 (ite (= .x.584 .x.591) 1 0)) .def_187))))) (and (and .def_51 (and .def_112 (and .loc.11 (and .loc.10 (and .loc.9 (and .def_101 (and .loc.7 (and .loc.6 .def_127)))))))) .def_201))) (and (and (and .def_206 .def_208) .def_211) .def_214)) (and (or G1_10 (= (+ Y_18 (* (- 1) .x.586)) 1)) (and (and .def_201 (and .def_51 (and .def_112 (and .def_151 (and .loc.11 (and .loc.10 (and .def_49 (and .def_47 (and .def_101 (and .def_143 (and .def_99 (and .def_96 .def_222)))))))))))) .def_238))) (and (or G1_10 (and (= .x.586 .def_257) .def_259)) (and .def_201 (and .def_51 (and .def_112 (and .def_151 (and .loc.11 (and .loc.10 (and .def_47 (and .loc.7 (and .loc.5 .def_268))))))))))) (and .def_51 (and .def_132 (and .def_112 (and .def_154 (and .loc.12 (and .loc.9 (and .def_101 (and .loc.7 (and .loc.6 .def_293)))))))))) (and (and .def_51 (and .def_132 (and .def_112 (and .def_154 (and .loc.12 (and .loc.9 (and .def_101 (and .loc.7 (and .loc.6 .def_313))))))))) .def_323)) (and .def_201 (and .def_51 (and .def_132 (and .def_112 (and .loc.11 (and .loc.9 (and .def_47 (and .def_101 (and .loc.7 .def_293)))))))))) (and (or G1_10 (not .def_336)) (and .def_201 (and .def_51 (and .def_132 (and .def_112 (and .loc.11 (and .loc.9 (and .def_47 (and .def_101 (and .loc.7 .def_313))))))))))) (and (and (and .def_351 .def_353) .def_356) .def_359)) (and (or G1_10 (and (= .x.565 (store D_18 M_18 (store .def_162 (+ O_18 Y_18) .def_159))) (and .def_336 (= (+ Y_18 (* (- 1) .x.586)) (- 1))))) (and (or F1_18 (= (+ R_18 (* (- 1) .x.579)) 1)) (and .def_201 (and .def_51 (and .def_132 (and .def_112 (and .def_151 (and .loc.11 (and .def_47 (and .def_101 (and .loc.7 .def_268)))))))))))) (and (or G1_10 (not .def_121)) (and .def_201 (and .def_51 (and .def_132 (and .def_112 (and .def_154 (and .def_151 (and .loc.7 (and .loc.6 (and .loc.5 .def_401))))))))))) (and .def_201 (and .def_132 (and .def_112 (and .def_154 (and .def_151 (and .def_49 (and .def_47 (and .def_101 (and .loc.8 .def_429)))))))))) (and (or G1_10 (and (and (= .x.579 .def_257) (= .x.586 0)) (= .x.565 (store D_18 B1_18 (store .def_158 (+ A1_18 .def_257) 0))))) (and .def_201 (and .def_51 (and .def_132 (and .def_112 (and .def_151 (and .loc.11 (and .def_49 (and .loc.6 (and .loc.5 (and .def_359 (and .def_146 (and .def_143 (and .def_99 (and .def_96 .def_454)))))))))))))))) (and .def_201 (and .def_51 (and .def_112 (and .def_154 (and .loc.10 (and .loc.9 (and .def_49 (and .def_101 (and .loc.6 .def_429)))))))))) (and .def_323 (and .def_201 (and .def_51 (and .def_112 (and .def_154 (and .loc.10 (and .loc.9 (and .def_49 (and .def_101 (and .loc.6 .def_401))))))))))) (and (= L_18 .x.573) (= T_18 .x.581))) (and (or G1_10 (and (= .x.565 (store D_18 B1_18 (store .def_158 (+ R_18 A1_18) L_18))) (and (<= (- 128) L_18) (and .def_187 (<= L_18 127))))) (and .def_238 (and .def_201 (and .def_51 (and .def_112 (and .def_154 (and .def_151 (and .loc.10 (and .def_49 (and .def_101 (and .loc.6 (and .def_359 (and .def_146 (and .def_143 (and .def_99 (and .def_96 (and .def_214 .def_454)))))))))))))))))) (and (= Z_18 .x.587) (and (= N_18 .x.575) (and (= J_18 .x.571) (and (= F_18 .x.567) (= H_18 .x.569)))))) (and (or G1_10 (and (and (= .x.571 0) (= .x.567 0)) (= G1_0 (store B_18 0 0)))) (and (or F1_18 (and (and (and (and (and (and (and (and .def_259 (and (and (and (not (<= .x.562 .x.589)) (not (<= .x.562 .x.574))) (not (= .x.574 0))) (= .x.575 5))) (not (= .x.589 0))) (= .x.576 0)) (= .x.588 0)) (= (select G1_0 .x.589) 0)) (= (select .def_571 .x.574) 0)) (= .x.569 (store (store H_18 .x.589 .def_582) .x.574 .def_582))) (= .x.563 (store .def_571 .x.574 1)))) (and .def_201 (and .def_51 (and .def_112 (and .def_154 (and .def_151 (and .loc.10 (and .def_49 (and .def_47 (and .loc.5 (and .def_143 (and .def_93 (and .def_140 .def_353)))))))))))))))))))))))))))))))))))))))))))))))))))))))))))))))))))) (state |.x.562| |.x.563| |.x.564| |.x.565| |.x.566| |.x.567| |.x.568| |.x.569| |.x.570| |.x.571| |.x.572| |.x.573| |.x.574| |.x.575| |.x.576| |.x.577| |.x.578| |.x.579| |.x.580| |.x.581| |.x.582| |.x.583| |.x.584| |.x.585| |.x.586| |.x.587| |.x.588| |.x.589| |.x.590| |.x.591| |.x.592| |F1_18| |.loc.9| |.loc.10| |.loc.11| |.loc.12| |.xtv.1|))))
(assert (forall ((|A_18| Int) (|B_18| (Array Int Int)) (|C_18| (Array Int Int)) (|D_18| (Array Int Int)) (|E_18| (Array Int Int)) (|F_18| Int) (|G_18| Int) (|H_18| (Array Int Int)) (|I_18| (Array Int Int)) (|J_18| Int) (|K_18| Int) (|L_18| Int) (|M_18| Int) (|N_18| Int) (|O_18| Int) (|P_18| Int) (|Q_18| Int) (|R_18| Int) (|S_18| Int) (|T_18| Int) (|U_18| Int) (|V_18| Int) (|W_18| Int) (|X_18| Int) (|Y_18| Int) (|Z_18| Int) (|A1_18| Int) (|B1_18| Int) (|C1_18| Int) (|D1_18| Int) (|E1_18| Int) (|G1_10| Bool) (|.loc.5| Bool) (|.loc.6| Bool) (|.loc.7| Bool) (|.loc.8| Bool) (|G1_0| (Array Int Int)) (|.x.572| Int) (|.x.570| (Array Int Int)) (|.x.568| Int) (|.x.566| (Array Int Int)) (|.x.562| Int) (|.x.564| (Array Int Int)) (|.x.563| (Array Int Int)) (|F1_18| Bool) (|.x.574| Int) (|.x.576| Int) (|.x.580| Int) (|.x.588| Int) (|.x.589| Int) (|.x.587| Int) (|.loc.10| Bool) (|.x.584| Int) (|.x.577| Int) (|.x.590| Int) (|.x.591| Int) (|.loc.12| Bool) (|.loc.9| Bool) (|.loc.11| Bool) (|.x.579| Int) (|.x.582| Int) (|.x.585| Int) (|.x.586| Int) (|.x.578| Int) (|.x.565| (Array Int Int)) (|.x.583| Int) (|.x.592| Int) (|.x.573| Int) (|.x.581| Int) (|.x.575| Int) (|.x.571| Int) (|.x.567| Int) (|.x.569| (Array Int Int)) (|.xtv.1| (Array Int Int))) (=> (state |A_18| |B_18| |C_18| |D_18| |E_18| |F_18| |G_18| |H_18| |I_18| |J_18| |K_18| |L_18| |M_18| |N_18| |O_18| |P_18| |Q_18| |R_18| |S_18| |T_18| |U_18| |V_18| |W_18| |X_18| |Y_18| |Z_18| |A1_18| |B1_18| |C1_18| |D1_18| |E1_18| |G1_10| |.loc.5| |.loc.6| |.loc.7| |.loc.8| |G1_0|) (not (and G1_10 (and .loc.8 (and (not .loc.7) (and .loc.6 (not .loc.5)))))))))
(check-sat)
